/*------------
 * Multi-knapsack gmpl data
 *------------------------------*/

data; 

param N := 3; 

param c := 1 3, 2 5, 3 7;

param b := 1 4, 2 3, 3 5;

param a : 1 2 3 :=
      1   2 2 1
      2   1 3 1
      3   4 1 2;

end;




